Route #1: 18 13 41 19 40 42 4 47
Route #2: 5 49 10 39 33 45 15 44 37 17 12
Route #3: 38 9 30 34 50 21 29 2 16 11
Route #4: 8 26 31 28 3 36 35 20 22 1 32 46
Route #5: 6 14 25 24 43 7 23 48 27
Cost 521
Time 0.064259
